Gurobi 12.0.3:   lim:time = 14400

  mip:bestbound = 1

Set parameter LogToConsole to value 1

  tech:outlev = 1

Set parameter Cuts to value 3

  cut:cuts = 3

Set parameter Presolve to value 2

  pre:solve = 2

Set parameter MIPFocus to value 2

  mip:focus = 2

Set parameter Symmetry to value 2

  mip:symmetry = 2

Set parameter InfUnbdInfo to value 1

Gurobi Optimizer version 12.0.3 build v12.0.3rc0 (win64 - Windows 11+.0 (26200.2))



CPU model: 13th Gen Intel(R) Core(TM) i7-13700K, instruction set [SSE2|AVX|AVX2]

Thread count: 16 physical cores, 24 logical processors, using up to 24 threads



Non-default parameters:

TimeLimit  14400

MIPFocus  2

Symmetry  2

Cuts  3

InfUnbdInfo  1

Presolve  2



Optimize a model with 323 rows, 610 columns and 3383 nonzeros

Model fingerprint: 0x7f6fcf6e

Model has 2 quadratic objective terms

Model has 5 quadratic constraints

Variable types: 35 continuous, 575 integer (0 binary)

Coefficient statistics:

  Matrix range     [1e+00, 1e+05]

  QMatrix range    [1e+00, 1e+00]

  QLMatrix range   [1e+00, 1e+01]

  Objective range  [4e+00, 1e+02]

  QObjective range [2e+00, 2e+00]

  Bounds range     [1e+00, 1e+02]

  RHS range        [1e+00, 1e+05]

  QRHS range       [1e+02, 1e+02]

Presolve removed 25 rows and 57 columns

Presolve time: 0.04s

Presolved: 668 rows, 915 columns, 5381 nonzeros

Variable types: 87 continuous, 828 integer (676 binary)

Found heuristic solution: objective 347.2000000

Root relaxation presolve removed 17 rows and 3 columns

Root relaxation presolved: 501 rows, 764 columns, 6920 nonzeros





Root relaxation: objective 4.122651e+01, 141 iterations, 0.01 seconds (0.01 work units)



    Nodes    |    Current Node    |     Objective Bounds      |     Work

 Expl Unexpl |  Obj  Depth IntInf | Incumbent    BestBd   Gap | It/Node Time



     0     0   41.22651    0   52  347.20000   41.22651  88.1%     -    0s

H    0     0                     316.1600000   41.22651  87.0%     -    0s

H    0     0                     267.3500000   63.19727  76.4%     -    0s

H    0     0                     255.3500000   63.19727  75.3%     -    0s

     0     0   73.62000    0   29  255.35000   73.62000  71.2%     -    0s

H    0     0                     250.9500000   73.62000  70.7%     -    0s

H    0     0                     239.4300000   73.62000  69.3%     -    0s

H    0     0                     236.1200000   73.62000  68.8%     -    0s

     0     0   73.62000    0   44  236.12000   73.62000  68.8%     -    0s

H    0     0                     235.9100000   73.62000  68.8%     -    0s

     0     0   73.62000    0   12  235.91000   73.62000  68.8%     -    0s

     0     0   73.62000    0   12  235.91000   73.62000  68.8%     -    0s

H    0     0                     210.7000000   73.62053  65.1%     -    0s

H    0     0                     205.5200000   73.62053  64.2%     -    0s

     0     0   73.62080    0   34  205.52000   73.62080  64.2%     -    0s

     0     0   77.08000    0   34  205.52000   77.08000  62.5%     -    0s

     0     2   77.08000    0   34  205.52000   77.08000  62.5%     -    0s

H  178   111                     202.4300000   77.08000  61.9%  17.8    0s



Cutting planes:

  Learned: 12

  Gomory: 31

  Cover: 7

  Implied bound: 44

  Projected implied bound: 13

  Clique: 7

  MIR: 37

  StrongCG: 16

  Flow cover: 199

  Inf proof: 3

  Zero half: 131

  RLT: 101

  Relax-and-lift: 40



Explored 3382 nodes (45498 simplex iterations) in 1.15 seconds (0.94 work units)

Thread count was 24 (of 24 available processors)



Solution count 10: 202.43 205.52 210.7 ... 316.16



Optimal solution found (tolerance 1.00e-04)

Best objective 2.024300000000e+02, best bound 2.024300000000e+02, gap 0.0000%



AMPL MP initial flat model has 610 variables (0 integer, 575 binary);

Objectives: 1 quadratic; 

Constraints:  323 linear; 5 quadratic;



AMPL MP final model has 610 variables (0 integer, 575 binary);

Objectives: 1 quadratic; 

Constraints:  323 linear; 5 quadratic;





-----RESULTS INFO-----
running_time:  2
TC.best_bound:  202.43
TC:  202.43
MIP Gap (%):  0
=== Vehicle Routes ===
Vehicle 1: 0 → 1
Vehicle 1: 1 → 2
Vehicle 1: 2 → 9
Vehicle 1: 6 → 16
Vehicle 1: 9 → 14
Vehicle 1: 14 → 6
Vehicle 2: 0 → 16
Vehicle 3: 0 → 16

=== Full Vehicle Routes ===
Vehicle 1: 0 → 1 → 2 → 9 → 14 → 6 → 0 (94<100)
Vehicle 2: 0 → 0 (0<100)
Vehicle 3: 0 → 0 (0<100)
Arc used by MRT line: y variables:
Customer assigment to PL: u variables:
3 9
4 9
5 9
7 14
8 14
Node is served by regular vehicle: g variables:
1
2
6
9
14
Customer assigment to Home delivery: gm variables:
1
2
6
Node total demands: ntd variables:
1 13 1
2 12 1
6 24 1
7 0 0
8 0 0
15 0 0
9 31 1
10 0 0
11 0 0
12 0 0
13 0 0
14 14 1
Customer's demand delivered to PL: l variables:
3
4
5
7
8
Lockers load <= capacity:
0 <= 93
31 <= 86
0 <= 90
0 <= 89
0 <= 76
0 <= 78
14 <= 96
